WARNING: for repeatability, setting FPU to use double precision
============================[ Problem Statistics ]=============================
|                                                                             |
|  Number of variables:            50                                         |
|  Number of clauses:             218                                         |
|  Parse time:                   0.00 s                                       |
|                                                                             |
============================[ Search Statistics ]==============================
| Conflicts |          ORIGINAL         |          LEARNT          | Progress |
|           |    Vars  Clauses Literals |    Limit  Clauses Lit/Cl |          |
===============================================================================
===============================================================================
restarts              : 1
conflicts             : 34             (24338 /sec)
decisions             : 38             (0.00 % random) (27201 /sec)
propagations          : 471            (337151 /sec)
conflict literals     : 125            (20.89 % deleted)
Memory used           : 20.00 MB
CPU time              : 0.001397 s

UNSATISFIABLE
